max_width = 32;
n_blocks = 27;
width = [4, 4, 4, 4, 4, 4, 4, 4, 3, 3, 3, 3, 3, 3, 3, 3, 3, 3, 3, 3, 3, 3, 3, 3, 3, 3, 3];
height = [18, 11, 10, 7, 6, 5, 4, 3, 27, 25, 24, 23, 22, 18, 15, 14, 13, 12, 11, 10, 9, 8, 7, 6, 5, 4, 3];
